(set-info :Origin "This instance was generated by: BanditFuzz-- an RL fuzzer for SMT solvers" )
(set-info :Author "Joe Scott, Fed Mora, Vijay Ganesh" )
(set-info :Contact "Joe Scott, joseph.scott@uwaterloo.ca")
(set-logic QF_BV)
(declare-const bool_0 Bool)
(declare-const bool_1 Bool)
(declare-const bool_2 Bool)
(declare-const bool_3 Bool)
(declare-const bool_4 Bool)
(declare-const bv_0 (_ BitVec 32))
(declare-const bv_1 (_ BitVec 32))
(declare-const bv_2 (_ BitVec 32))
(declare-const bv_3 (_ BitVec 32))
(declare-const bv_4 (_ BitVec 32))
(assert (not (bvule (bvadd bv_3 bv_2) (bvsub bv_4 #x1916bfda ))))
(assert (bvsgt (bvmul (bvxor #x1550244e  bv_1) (bvsub #x300c6af0  bv_3)) (bvshl (bvurem #x114ed32b  bv_3) (bvlshr bv_3 bv_3))))
(assert (or (and (bvule bv_3 bv_2) (bvugt #xcb06c649  #x231fc462 )) (=> (bvslt #x9a35c7db  bv_1) (bvule #xae009c2e  #x08332fde ))))
(assert (bvsgt (bvxnor (bvor bv_0 #x5a4cff48 ) (bvxnor bv_3 bv_3)) (bvsub (bvsub #x12aac92f  #xbcbdcef6 ) (bvudiv bv_1 #xef9aacd5 ))))
(assert (bvsge (bvnand (bvashr bv_4 bv_2) (bvshl #xde673f3f  bv_0)) (bvudiv (bvurem bv_4 bv_2) (bvxnor #xd4f73577  #x0c457d77 ))))
(check-sat)
(exit)
